20190618 100 0 0 0
20180719 140 0 0 0
20170609 100 0 0 0
20160519 120 0 0 0
20150528 120 0 0 0
20140617 110 0 0 0
20130701 100 0 0 0
20120720 100 0 0 0
20110607 120 0 0 0
20100517 100 0 0 0
20090514 0 3000 0 0
20080722 150 0 0 0
20070717 80 0 0 0
20060530 80 1500 0 0
20051227 0 3500 0 0
20050613 100 0 0 0
20041018 0 10000 0 0
20040621 200 0 0 0
20030623 150 0 0 0
20020626 100 0 0 0
20010529 200 0 0 0
19990423 0 3000 0 0
19980603 0 5000 0 0
19950522 0 2000 0 0
